     30      1      7    285     12
     44
      1     14     18      2     26      0      1     13      2     28     26     24     25     14     20     25     18     23      4     26      9      6      8     20      1     15      4     18     21      5      7     27     28     21     14     27     15     18      1     10      6     14     28     13     11     20     24      8     28     21     14      7     11      6      5     16     14      0     12     20     11     22     23     26     13      2      9      2     28     26      3     25     18     13     21      7      1      9     22     15     12     26     28      3     15     14     18     22     23     24      1      8      6     23     28      0      5     16     24     11      0     22     29     20     19     17     22      2      5      4     29     15     25     24     19      2     10     28      6     12     15     29      3     24     11     26     13     27     14      4      9      3      6      5      2     13     25     21      1     27      4     20     14     25     23      5      4     19     27      3     24     17     29      0     11     18     17      9      0     28     29      1     19      5     17     24     18     25     16     26     18     11     22      1     21     29      2     18      1     20
    249    -29    -22     13    112    -20    111    -46    194     73     77    117    159     44     96     48    127    136     12     52    132    127    135    -32     79     78     43    -30     63     88    103    128    168     10    143     57    135     84    166      1
      5     12	    433    283      6      7     10      0      0      0     -5    182      0      0      0      0      0      0      0      0      0      0      0      0    125      0    195      0      0      0      0      0      0      0      0      0     21
      1     15	    410    202      4      4      2      0      0      0      0      0      0     69     29     93     81      0      0      0      0      0      0    178      0      0      0      0     41    159      0      0      0      0      0      0    168
      4     14	    213     64      4      4      5      0      0      0      0    156      0      0      0      8      0     45      0      0      8    111      7     16     61      0      0      0      0      0      0     38      0    -12      0      0      0
      4     10	    227     68      5      5      6     -5      0      0      0      0      0     33      0    142      0      0      0      0    -34      0      0      0      0      0      0      0      0      0      0      0      0     -2      0      0      0
      1     15	    318    156      5      6      3    182      0    156      0      0      0      0      0      0      0     50      0      0    225      0    112      0      0      0      0      0      0    194      0      0    -48      0      0      0      0
      4     10	    454    282      5      5      8      0      0      0      0      0      0      0      0      0      0      0      0    -70      0      0      0    -35    235      0      0      0      0      0      0      0    206      0      0      0      0
      1     15	    131     83      1      6      1      0     69      0     33      0      0      0     40     -2      0     53      0      0     68     10      0      0      0      0      0     24      0      0      0      0      0      0      0      0      0
      1     15	    151     83      1      5      1      0     29      0      0      0      0     40      0      0      0     51      0      0      0      0      0      0      0      0      0      0      0      0      0      0      0      0      0      0      0
      2     15	    182    124      2      2      5      0     93      8    142      0      0     -2      0      0      0      0      0      0      0      0      0    -27      0      0      0     -3      0    -17      0      0      0    -26    122      0      0
      6     11	    226     59      7      7     10      0     81      0      0      0      0      0      0      0      0      0      7      0      0      0      0      0      0      0      0      0      0      0     90      0     62      0      0      0      0
      4     11	    392    229      7      7      4      0      0     45      0     50      0     53     51      0      0      0      0      0      0      0      0      0      0      0      0      0      0      0      0      7    243    142    -13      0      0
      5     13	    110     50      5      7      5      0      0      0      0      0      0      0      0      0      7      0      0      0     29      0      0      0      0      0      0      0      0      0      0      0      0      0     51      0     70
      6     12	    450    241      6      6     10      0      0      0      0      0    -70      0      0      0      0      0      0      0      0      0     60      0      0      0      0      0     85      0      0      0    208      0    166      0      6
      5     14	    429    171      6      6      7      0      0      8    -34    225      0     68      0      0      0      0     29      0      0      0      0    160      0      0      0      0      0      0      0     69      0      0    151      0      0
      1     12	    341    168      3      7      1      0      0    111      0      0      0     10      0      0      0      0      0      0      0      0      0      0     53    -20     14      0      0      0     70      0      0      0      0      0      0
      1     11	    167    104      4      7      6      0      0      7      0    112      0      0      0      0      0      0      0     60      0      0      0      0      0    126      0      0      0      0      0      0    133      0      0     64     43
      3     13	    352    125      6      7      7      0    178     16      0      0    -35      0      0    -27      0      0      0      0    160      0      0      0      0     96    207    -13      0      0      0      0      0      0      0      0    -30
      4     12	    359    162      6      7      2    125      0     61      0      0    235      0      0      0      0      0      0      0      0     53      0      0      0      0      0     34      0      0      0      0      0     -3      0      0      0
      2     10	    191     80      5      5      1      0      0      0      0      0      0      0      0      0      0      0      0      0      0    -20    126     96      0      0      0     56      0      0      0      0    -10      0    -37      0      0
      6     12	    356    188      6      6      4    195      0      0      0      0      0      0      0      0      0      0      0      0      0     14      0    207      0      0      0      0      0      0     23      0      0      0      0      0      0
      5     11	    151     79      6      7      9      0      0      0      0      0      0     24      0     -3      0      0      0      0      0      0      0    -13     34     56      0      0     44      0      0      0      0      0      0      0      0
      5     14	    310    146      7      7      8      0     41      0      0      0      0      0      0      0      0      0      0     85      0      0      0      0      0      0      0     44      0      0      0      0      0     68      0      0      0
      4     12	    277    154      7      7      7      0    159      0      0    194      0      0      0    -17      0      0      0      0      0      0      0      0      0      0      0      0      0      0      0      0     90      0      0      0      0
      2     11	    415    144      7      7      7      0      0      0      0      0      0      0      0      0     90      0      0      0      0     70      0      0      0      0     23      0      0      0      0      0      0     64      0      0      0
      2     10	    214    108      2      7      4      0      0     38      0      0      0      0      0      0      0      7      0      0     69      0      0      0      0      0      0      0      0      0      0      0    154      0     -7     45    107
      2     13	    370    146      4      6      6      0      0      0      0    -48    206      0      0      0     62    243      0    208      0      0    133      0      0    -10      0      0      0     90      0    154      0      0    228      0      0
      5     12	    372    185      5      7      2      0      0    -12     -2      0      0      0      0    -26      0    142      0      0      0      0      0      0     -3      0      0      0     68      0     64      0      0      0      0      0      0
      2     10	    296    203      4      5      9      0      0      0      0      0      0      0      0    122      0    -13     51    166    151      0      0      0      0    -37      0      0      0      0      0     -7    228      0      0      0    -42
      3     13	    498    181      7      7      7      0      0      0      0      0      0      0      0      0      0      0      0      0      0      0     64      0      0      0      0      0      0      0      0     45      0      0      0      0     75
      2     15	    313     96      5      6      8     21    168      0      0      0      0      0      0      0      0      0     70      6      0      0     43    -30      0      0      0      0      0      0      0    107      0      0    -42     75      0